c Optimised CNF encoding for 4x4 Sudoku
c Source: sudoku_4x4_01.txt
c Variables: 22  Clauses: 102
p cnf 22 102
1 2 0
3 4 0
5 6 0
7 8 9 0
10 11 0
12 13 0
14 15 16 0
17 18 0
19 20 0
21 22 0
-1 -2 0
-3 -4 0
-5 -6 0
-7 -8 0
-7 -9 0
-8 -9 0
-10 -11 0
-12 -13 0
-14 -15 0
-14 -16 0
-15 -16 0
-17 -18 0
-19 -20 0
-21 -22 0
1 3 0
2 4 0
7 0
5 8 10 0
6 9 11 0
14 0
12 15 17 0
13 16 18 0
19 21 0
20 22 0
-1 -3 0
-2 -4 0
-5 -8 0
-5 -10 0
-8 -10 0
-6 -9 0
-6 -11 0
-9 -11 0
-12 -15 0
-12 -17 0
-15 -17 0
-13 -16 0
-13 -18 0
-16 -18 0
-19 -21 0
-20 -22 0
5 12 0
6 13 0
14 0
1 15 19 0
2 16 20 0
7 0
3 8 21 0
4 9 22 0
10 17 0
11 18 0
-5 -12 0
-6 -13 0
-1 -15 0
-1 -19 0
-15 -19 0
-2 -16 0
-2 -20 0
-16 -20 0
-3 -8 0
-3 -21 0
-8 -21 0
-4 -9 0
-4 -22 0
-9 -22 0
-10 -17 0
-11 -18 0
1 5 0
2 6 0
7 0
3 8 10 0
4 9 11 0
14 0
12 15 19 0
13 16 20 0
17 21 0
18 22 0
-1 -5 0
-2 -6 0
-3 -8 0
-3 -10 0
-8 -10 0
-4 -9 0
-4 -11 0
-9 -11 0
-12 -15 0
-12 -19 0
-15 -19 0
-13 -16 0
-13 -20 0
-16 -20 0
-17 -21 0
-18 -22 0
